% demand
num_movements = 42;
loading_factor = [1600, 1400, 1850, 1400, 2000, 1550, 1200, 1850, 800, 1900, 1150, 1750, 900, 1200, 800, 1100, 1250, 1400, 800, 900, 1200, 1450, 1000, 1200, 1900, 1000, 1800, 1900, 1200, 800, 1700, 1500, 1200, 1350, 1550, 1100, 1650, 1800, 850, 950, 2000, 800];
pickup_time = [0, 0, 0, 0, 0, 0, 0, 3, 3, 3, 4, 4, 4, 4, 4, 5, 6, 6, 6, 6, 9, 9, 9, 9, 10, 10, 10, 10, 11, 11, 11, 11, 11, 11, 11, 11, 12, 12, 12, 12, 12, 12];
delivery_time = [2, 2, 2, 2, 2, 2, 4, 4, 4, 4, 9, 9, 5, 9, 9, 9, 9, 9, 9, 9, 10, 11, 11, 11, 11, 11, 11, 11, 13, 13, 12, 12, 12, 12, 12, 12, 13, 13, 13, 13, 13, 13];

% transporter definition
total_capacity = 11000;
num_decks = 4;
capacity = [3000, 3000, 1000, 4000];

% ways out of decks
num_ways_out = 2;
paths_out = array3d(decks, ways_out, decks, [
% ways out of deck d1
2, 4, 0, 0, 3, 4, 0, 0, 

% ways out of deck d2
4, 0, 0, 0, 0, 0, 0, 0,	

% ways out of deck d3
4, 0, 0, 0, 0, 0, 0, 0,	

% ways out of deck d4
0, 0, 0, 0,	0, 0, 0, 0,	

]);

